DB6-cuf_3664
 1.0
      15.99530000000000       0.00000000000000       0.00000000000000
       1.66758311722084      15.53595962878251       0.00000000000000
      -0.00386960015700      -4.55261010316344      13.85762872806054
 Cu C F H C O C O C F H C O C O C F H N
 2 10 6 6 2 2 2 2 16 4 6 2 2 2 2 8 2 2 2
Selective dynamics
Cartesian
   3.339996858166213  -1.238184545109656  13.821737469654865   F   F   F
   3.343648512326902   2.493453378150317   2.463054930125481   F   F   F
   9.998751802208758   2.881627412596445   1.206306580777670   F   F   F
  10.561907803975865  -1.199575100015260  13.676786673159352   F   F   F
  12.111472930723629  -1.178228782916448  13.682745453512418   F   F   F
  12.684223121441356   2.926251523607652   1.220857090942134   F   F   F
  12.143998441095004   1.483451381120618   1.512560175667808   F   F   F
  10.593912847429314   1.459605039161692   1.494822410895891   F   F   F
  10.547985500236665   3.852795787567550   2.312838234713305   F   F   F
  12.097767778734951   3.903034936757882   2.300366368858050   F   F   F
  14.201977397988260   2.951530210978594   1.229033091891689   F   F   F
   8.480997525661854   2.856348725225503   1.198130579828114   F   F   F
  10.099258693366254  -2.023385969735839  12.663655436850846   F   F   F
  10.111409582575487   0.974654307595192   2.701406144248122   F   F   F
  12.540833299030064   5.198304001590468   2.066172443353827   F   F   F
  12.611082010194988  -1.998334313592998  12.680561743899078   F   F   F
  10.030398312304991   5.125445145147943   2.130471840652028   F   F   F
  12.621421943456076   1.037518742333572   2.737990284090202   F   F   F
  12.476018047176291  -0.129002736070017  13.426656474617859   T   T   T
  10.173241982011810  -0.161023938488717  13.412521693315236   T   T   T
  10.248963668541380   0.713169210371533   0.705353302258282   T   T   T
  12.548775965934031   0.749729492972338   0.739720221503872   T   T   T
  12.483604620246616   3.648612188498900   3.342460049208203   T   T   T
  10.181000274677452   3.517895569877360   3.338857065738907   T   T   T
   0.906274570018374   2.996574874677632   1.243722178343434   F   F   F
  15.411845420133814   2.971606906499266   1.235546177393878   F   F   F
   1.406299995622034   3.368219907272487   0.140377779015253   F   F   F
   1.406162072956969   2.641395704302444   2.352748205450119   F   F   F
   5.781417029462913   2.811459421122752   1.183441493376370   F   F   F
   7.271129503516302   2.836272029704831   1.191617494325926   F   F   F
   5.281404887850446   2.435874054741123   2.285538706119025   F   F   F
   5.281482890870782   3.170268206092139   0.075662652855211   F   F   F
   3.993893224645789   8.218016138553166   4.235861373306266   F   F   F
   3.810482637091254   6.899465665190442   3.802256170405252   F   F   F
   3.810662658860523   7.656355876134557   1.498841123227028   F   F   F
   3.994233276807061   8.974997401699344   1.932169173553481   F   F   F
   4.085680288132109   9.255772616161021   3.300610010449460   F   F   F
   4.086020340293381  10.012753879307198   0.996917810696675   F   F   F
   4.269414329408749  11.331240045275699   1.430245861023129   F   F   F
   4.360878016564969  11.612170619333661   2.798686697919107   F   F   F
   4.269074277247476  10.574258782129519   3.733938060775913   F   F   F
   3.990527099980160   5.179213202085798  13.486105701861238   F   F   F
   4.082314163466480   6.216969679693652  12.550854339004433   F   F   F
   4.265724828413019   7.535611205258439  12.984182389330885   F   F   F
   4.361201392895068  12.368996522883551   0.494994498166323   F   F   F
   4.357511891899340   8.573367682866291  12.048931026474079   F   F   F
   4.540905919710707   9.891899374935823  12.482120500513252   F   F   F
   4.544452143537608  13.687683574549370   0.928183972205495   F   F   F
   4.304629777409133  10.872557035514689   5.060390282625868   F   F   F
   3.935657872277984   5.932431867997030  11.229806592358422   F   F   F
   4.100234901276424   7.157656643390595   0.273549591091915   F   F   F
   5.046046566212152  14.087086846863986   2.120910076829666   F   F   F
   4.510060029526572  12.685895120984028   3.151363349048248   T   T   T
   4.068437232993206   8.446501935151302   5.350153299329613   T   T   T
   3.735717992443410   6.054492153229754   4.564010021586739   T   T   T
   3.841041895545730   4.105689586132750  13.133290474444816   T   T   T
   4.282951207720750   8.344726526671870  10.934639100450733   T   T   T
   4.615687162797720  10.736937194290736  11.720643801906325   T   T   T
   3.163890661881323   0.592808398789987   0.454114493418544   F   F   F
   4.632352892339753  10.172629063296467  13.850699913696513   F   F   F
   3.229293102343311   0.700218403736631   1.715158707672053   F   F   F
   3.225561463547376  -3.125521970355731  13.360278433010450   F   F   F
   3.523800937599964   5.215225897010398   1.973049178301260   F   F   F
   3.718875595374203   6.618599398526704   2.434092486083834   F   F   F
   3.458398497137976   5.107815892063753   0.712004964047751   F   F   F
   3.458243859945736   4.380790803396392   2.924513966769897   F   F   F
   2.536470996368352   1.270367455419033   9.090050140458592   F   F   F
   2.537019029422593   1.707482332716947   7.759994935139343   F   F   F
   4.147334327124761  -0.015098622378372   7.194742259321753   F   F   F
   4.146962922901692  -0.452058140079999   8.524797464641003   F   F   F
   3.341371285175487   0.190652135768188   9.472520693353063   F   F   F
   3.342434038317627   1.064616697272473   6.812271706427282   F   F   F
   3.342996661909964   1.538361304607660   5.370246860985302   F   F   F
   3.340808622887148  -0.283137997668031  10.914684115082325   F   F   F
   1.751641785771717   1.901452364232082   9.999387737593926   F   F   F
   4.936855856086267  -0.654534787527519   6.294273544572379   F   F   F
   1.881678826638333   2.586641770568380   7.448891170194383   T   T   T
   4.802286411158780  -1.331418463628750   8.836039805873243   T   T   T
   3.340344362385296  -0.660621646129150  12.064174418074947   F   F   F
   3.343477636938989   1.916045838766098   4.220617981705399   F   F   F
