str_m2_o7_o24_f0_nbo
 1.0
      41.42161860000000       0.00000000000000       0.00000000000000
       0.00000000000000      35.57146830000000       0.00000000000000
      10.79580703710637       0.00000000000000      18.27244109103500
 O C O C Cu C H C H C H C H C H C H C H C H C H C H C O C O C Cu O C O C O C Cu O C H C H C H C H C H C H C H C H C
 8 4 8 4 4 8 8 24 16 4 4 4 4 8 4 4 4 16 4 4 4 8 4 4 4 4 4 2 8 4 4 4 2 4 2 8 4 4 4 6 4 4 4 12 4 4 4 8 4 4 4 12 4 4 4 4
Selective dynamics
Cartesian
  39.762867834159948  16.633147434143400   1.034969335837314   F   F   F
  12.454568598753466  16.633147434143400  17.237490027638778   F   F   F
  19.052058534159944  34.418881584143399   1.034969335837314   F   F   F
  33.165377898753469  34.418881584143399  17.237490027638778   F   F   F
  39.731509537936248  18.911962407846300   0.982034073996585   F   F   F
  12.485916099170126  18.911962407846300  17.290407017038415   F   F   F
  19.020700237936246   1.126228257846300   0.982034073996585   F   F   F
  33.196725399170127   1.126228257846301  17.290407017038415   F   F   F
  39.185637620086169  17.772750564070499   1.346496183998369   F   F   F
  13.031788017020203  17.772750564070499  16.925944907036634   F   F   F
  18.474828320086175  35.558484714070502   1.346496183998369   F   F   F
  33.742597317020206  35.558484714070502  16.925944907036634   F   F   F
   1.028267541783798  16.629448001440199   1.631235633519968   F   F   F
  51.189158095322576  16.629448001440199  16.641205457515035   F   F   F
  21.739076841783803  34.415182151440199   1.631235633519968   F   F   F
  30.478348795322574  34.415182151440199  16.641205457515035   F   F   F
  42.384005819443672  18.914701410905401   1.671654273213337   F   F   F
   9.833430613469732  18.914701410905401  16.600805090262757   F   F   F
  21.673196519443678   1.128967260905400   1.671654273213337   F   F   F
  30.544239913469731   1.128967260905401  16.600805090262757   F   F   F
   1.326115728757991  17.771896848831300   2.197334130961323   F   F   F
  50.891309908348383  17.771896848831300  16.075106960073679   F   F   F
  22.036925028757995  35.557630998831300   2.197334130961323   F   F   F
  30.180500608348389  35.557630998831300  16.075106960073679   F   F   F
   0.000000000000001  16.456250522287501   0.000000000000000   F   F   F
  20.710809300000005  34.241984672287501   0.000000000000000   F   F   F
   0.000000000000001  19.088396890614302   0.000000000000000   F   F   F
  20.710809300000001   1.302662740614300   0.000000000000000   F   F   F
  42.889959389325561  18.096628782941998   4.792148672975931   F   F   F
   9.327466247780817  18.096628782941998  13.480292418059072   F   F   F
  22.179150089325553   0.310894632942000   4.792148672975931   F   F   F
  30.038275547780813   0.310894632942000  13.480292418059072   F   F   F
  44.086700571713791  18.983781202344002   5.085951253278682   F   F   F
   8.130725065392584  18.983781202344002  13.186489837756319   F   F   F
  23.375891271713787   1.198047052344000   5.085951253278682   F   F   F
  28.841534365392583   1.198047052344001  13.186489837756319   F   F   F
  44.062375396109218  19.980600458514896   5.571011474481297   F   F   F
   8.155050240997157  19.980600458514896  12.701429616553705   F   F   F
  23.351566096109213   2.194866308514900   5.571011474481297   F   F   F
  28.865859540997160   2.194866308514900  12.701429616553705   F   F   F
  41.823777342499064  18.359039504591102   4.946824886811543   F   F   F
  10.393648294607312  18.359039504591102  13.325616204223460   F   F   F
  21.112968042499062   0.573305354591100   4.946824886811543   F   F   F
  31.104457594607311   0.573305354591100  13.325616204223460   F   F   F
   3.374862966013183  17.782283717574899   5.644960043576717   F   F   F
  48.842562671093184  17.782283717574899  12.627481047458286   F   F   F
  24.085672266013187  35.568017867574902   5.644960043576717   F   F   F
  28.131753371093193  35.568017867574902  12.627481047458286   F   F   F
  43.613796298237517  16.894419868806899   5.375368447719587   F   F   F
   8.603640134675892  16.894419868806899  12.897090915756506   F   F   F
  22.902986998237516  34.680154018806903   5.375368447719587   F   F   F
  29.314449434675900  34.680154018806903  12.897090915756506   F   F   F
   2.789019684907562  16.570114792315799   4.017159628981863   F   F   F
  49.428405952198808  16.570114792315799  14.255281462053139   F   F   F
  23.499828984907563  34.355848942315795   4.017159628981863   F   F   F
  28.717596652198811  34.355848942315795  14.255281462053139   F   F   F
   3.987129768468891  17.458441070171698   4.310615032903885   F   F   F
  48.230306664444520  17.458441070171698  13.961844330572209   F   F   F
  24.697939068468894  35.244175220171698   4.310615032903885   F   F   F
  27.519497364444522  35.244175220171698  13.961844330572209   F   F   F
   3.263152740215193  18.659369411448001   3.726737450280953   F   F   F
  48.954272896891176  18.659369411448001  14.545703640754050   F   F   F
  23.973962040215191   0.873635261448000   3.726737450280953   F   F   F
  28.243463596891178   0.873635261448001  14.545703640754050   F   F   F
   2.079862002646462  17.772003563236201   3.457803662303100   F   F   F
  50.137522212841311  17.772003563236201  14.814637428731903   F   F   F
  22.790671302646462  35.557737713236200   3.457803662303100   F   F   F
  29.426712912841317  35.557737713236200  14.814637428731903   F   F   F
  43.196077240690499  16.164813482505600   6.098354124368567   F   F   F
   9.021348396415869  16.164813482505600  12.174086966666435   F   F   F
  22.485267940690505  33.950547632505597   6.098354124368567   F   F   F
  29.732157696415875  33.950547632505597  12.174086966666435   F   F   F
   2.821190841196426  15.569631674909999   3.540121009418213   F   F   F
  49.396234795909947  15.569631674909999  14.732320081616789   F   F   F
  23.532000141196431  33.355365824909995   3.540121009418213   F   F   F
  28.685425495909946  33.355365824909995  14.732320081616789   F   F   F
   5.050987288740158  17.193326916931799   4.144993626854744   F   F   F
  47.166449144173249  17.193326916931799  14.127465736621350   F   F   F
  25.761796588740165  34.979061066931799   4.144993626854744   F   F   F
  26.455639844173255  34.979061066931799  14.127465736621350   F   F   F
   3.681224988474827  19.388371082788201   3.003368052369059   F   F   F
  48.536211444438585  19.388371082788201  15.269091311107035   F   F   F
  24.392034288474829   1.602636932788200   3.003368052369059   F   F   F
  27.825402144438584   1.602636932788200  15.269091311107035   F   F   F
  30.805295683896059  17.782959575472599   4.959725230221813   F   F   F
  21.412088531591714  17.782959575472599  13.312715860813190   F   F   F
  10.094486383896058  35.568693725472599   4.959725230221813   F   F   F
  42.122897831591722  35.568693725472599  13.312715860813190   F   F   F
  30.789778650434929  17.781963574360201   3.878965157010366   F   F   F
  21.427646986671448  17.781963574360201  14.393475934024638   F   F   F
  10.078969350434928  35.567697724360201   3.878965157010366   F   F   F
  42.138456286671442  35.567697724360201  14.393475934024638   F   F   F
  29.615545108488178  17.785627435595099   5.664456738220851   F   F   F
  22.601839106999595  17.785627435595099  12.607984352814151   F   F   F
   8.904735808488176  35.571361585595099   5.664456738220851   F   F   F
  43.312648406999600  35.571361585595099  12.607984352814151   F   F   F
  28.684026096020531  17.786516722302597   5.117142310221079   F   F   F
  23.533399541085846  17.786516722302597  13.155298780813922   F   F   F
   7.973216796020528   0.000782572302600   5.117142310221079   F   F   F
  44.244208841085836   0.000782572302600  13.155298780813922   F   F   F
  29.620816875577322  17.786943579922198   7.049251958746030   F   F   F
  22.596608761529055  17.786943579922198  11.223189132288974   F   F   F
   8.910007575577319   0.001209429922200   7.049251958746030   F   F   F
  43.307418061529056   0.001209429922200  11.223189132288974   F   F   F
  30.834790679742316  17.785663007063398   7.715611340453894   F   F   F
  21.382645753171097  17.785663007063398  10.556848023022200   F   F   F
  10.123981379742315  35.571397157063402   7.715611340453894   F   F   F
  42.093455053171091  35.571397157063402  10.556848023022200   F   F   F
  30.870437310532989  17.786587865239202   8.795457791610788   F   F   F
  21.346988326573385  17.786587865239202   9.476983299424214   F   F   F
  10.159628010532987   0.000853715239200   8.795457791610788   F   F   F
  42.057797626573382   0.000853715239200   9.476983299424214   F   F   F
  32.022434311168411  17.782995146940898   7.007243616677741   F   F   F
  20.194991325937963  17.782995146940898  11.265197474357262   F   F   F
  11.311625011168413  35.568729296940901   7.007243616677741   F   F   F
  40.905800625937964  35.568729296940901  11.265197474357262   F   F   F
  32.964420673667391  17.782034717296799   7.537290587846483   F   F   F
  19.253004963438979  17.782034717296799  10.735150503188519   F   F   F
  12.253611373667393  35.567768867296799   7.537290587846483   F   F   F
  39.963814263438977  35.567768867296799  10.735150503188519   F   F   F
  32.012298955730230  17.781607859677198   5.627747404068962   F   F   F
  20.205126681376143  17.781607859677198  12.644693686966040   F   F   F
  11.301489655730229  35.567342009677198   5.627747404068962   F   F   F
  40.915935981376151  35.567342009677198  12.644693686966040   F   F   F
  33.253215823351148  17.779046713959598   4.889942777695150   F   F   F
  18.964220609562261  17.779046713959598  13.382516585780944   F   F   F
  12.542406523351149  35.564780863959598   4.889942777695150   F   F   F
  39.675029909562269  35.564780863959598  13.382516585780944   F   F   F
  34.293121622958154  17.777232569076300   4.271055197941795   F   F   F
  17.924304014148220  17.777232569076300  14.001385893093207   F   F   F
  13.582312322958158  35.562966719076300   4.271055197941795   F   F   F
  38.635113314148221  35.562966719076300  14.001385893093207   F   F   F
  36.115242251465183  18.965710896447600   3.146843259815866   F   F   F
  16.102194181448223  18.965710896447600  15.125616103660228   F   F   F
  15.404432951465187   1.179976746447600   3.146843259815866   F   F   F
  36.813003481448220   1.179976746447601  15.125616103660228   F   F   F
  35.639976338452648  19.902770085874501   3.400574376805978   F   F   F
  16.577449298653725  19.902770085874501  14.871866714229023   F   F   F
  14.929167038452645   2.117035935874500   3.400574376805978   F   F   F
  37.288258598653726   2.117035935874501  14.871866714229023   F   F   F
  37.302209270267042  18.966706897559998   2.437470551779705   F   F   F
  14.915216366839330  18.966706897559998  15.834970539255298   F   F   F
  16.591399970267041   1.180972747560000   2.437470551779705   F   F   F
  35.626025666839325   1.180972747560000  15.834970539255298   F   F   F
  37.736582856547322  19.912481096720398   2.147267642371887   F   F   F
  14.480853576366091  19.912481096720398  16.125191721104205   F   F   F
  17.025773556547321   2.126746946720400   2.147267642371887   F   F   F
  35.191662876366088   2.126746946720401  16.125191721104205   F   F   F
  37.921495496316695  17.773533136373100   2.105003486128323   F   F   F
  14.295930140789681  17.773533136373100  16.167437604906681   F   F   F
  17.210686196316693  35.559267286373100   2.105003486128323   F   F   F
  35.006739440789687  35.559267286373100  16.167437604906681   F   F   F
  37.334120092820505  16.581426519235201   2.494425750660461   F   F   F
  14.883305544285868  16.581426519235201  15.778015340374541   F   F   F
  16.623310792820504  34.367160669235197   2.494425750660461   F   F   F
  35.594114844285876  34.367160669235197  15.778015340374541   F   F   F
  37.793927469731472  15.634905319240501   2.249374043188591   F   F   F
  14.423498167374902  15.634905319240501  16.023067047846411   F   F   F
  17.083118169731470  33.420639469240498   2.249374043188591   F   F   F
  35.134307467374903  33.420639469240498  16.023067047846411   F   F   F
  36.147037843360337  16.584663522850501   3.203743641373349   F   F   F
  16.070398589553072  16.584663522850501  15.068715722102745   F   F   F
  15.436228543360334  34.370397672850501   3.203743641373349   F   F   F
  36.781207889553073  34.370397672850501  15.068715722102745   F   F   F
  35.696741275126143  15.648458048662798   3.502260511477588   F   F   F
  16.520684361980230  15.648458048662798  14.770180579557415   F   F   F
  14.985931975126142  33.434192198662799   3.502260511477588   F   F   F
  37.231493661980238  33.434192198662799  14.770180579557415   F   F   F
  35.533369150542775  17.775774138875999   3.532117680220339   F   F   F
  16.684056486563598  17.775774138875999  14.740323410814664   F   F   F
  14.822559850542774  35.561508288875999   3.532117680220339   F   F   F
  37.394865786563606  35.561508288875999  14.740323410814664   F   F   F
   6.368587996970657  19.741773620348699   8.538145276166833   F   F   F
  45.848837640135713  19.741773620348699   9.734295814868167   F   F   F
  27.079397296970662   1.956039470348700   8.538145276166833   F   F   F
  25.138028340135712   1.956039470348701   9.734295814868167   F   F   F
   5.397903518553186  20.395185921551402   9.136220545517501   F   F   F
  26.108712818553187   2.609451771551401   9.136220545517501   F   F   F
   5.421652196017192  17.750909682534299   6.894466110263872   F   F   F
  46.795773441089182  17.750909682534299  11.377974980771132   F   F   F
  26.132461496017196  35.536643832534303   6.894466110263872   F   F   F
  26.084964141089184  35.536643832534303  11.377974980771132   F   F   F
  44.865535907337616  17.828882341047901   8.039581720997944   F   F   F
   7.351900525575799  17.828882341047901  10.232877642478149   F   F   F
  24.154726607337611   0.043148191047900   8.039581720997944   F   F   F
  28.062709825575794   0.043148191047900  10.232877642478149   F   F   F
   4.112936096969393  17.788508724527400   6.914657157669465   F   F   F
  48.104489540136974  17.788508724527400  11.357783933365537   F   F   F
  24.823745396969397   0.002774574527400   6.914657157669465   F   F   F
  27.393680240136980   0.002774574527400  11.357783933365537   F   F   F
   6.537666389709097  17.791532299332900   8.476512332366774   F   F   F
  45.679770043204314  17.791532299332900   9.795947031109321   F   F   F
  27.248475689709096   0.005798149332900   8.476512332366774   F   F   F
  24.968960743204313   0.005798149332900   9.795947031109321   F   F   F
   6.400125620245649  15.841184263912201   8.592505788412664   F   F   F
  45.817300016860727  15.841184263912201   9.679935302622338   F   F   F
  27.110934920245651  33.626918413912200   8.592505788412664   F   F   F
  25.106490716860726  33.626918413912200   9.679935302622338   F   F   F
   5.397903518553186  15.187843105646099   9.136220545517501   F   F   F
  26.108712818553190  32.973577255646099   9.136220545517501   F   F   F
  26.691164545627153  19.742058192095097  10.115458936027158   F   F   F
  25.526271887286256  19.742058192095097   8.157000427448935   F   F   F
   5.980355245627153   1.956324042095100  10.115458936027158   F   F   F
  46.237081187286250   1.956324042095100   8.157000427448935   F   F   F
  26.108712818553187  20.396004065322302   9.136220545517501   F   F   F
   5.397903518553185   2.610269915322300   9.136220545517501   F   F   F
  28.371625905568575  17.789931583259399   9.116815213078821   F   F   F
  23.845810527344831  17.789931583259399   9.155644150397272   F   F   F
   7.660816605568577   0.004197433259400   9.116815213078821   F   F   F
  44.556619827344832   0.004197433259400   9.155644150397272   F   F   F
  27.207705774460010  17.789575868576399   7.158320159618418   F   F   F
  25.009719862646364  17.789575868576399  11.114120931416586   F   F   F
   6.496896474460006   0.003841718576400   7.158320159618418   F   F   F
  45.720529162646365   0.003841718576400  11.114120931416586   F   F   F
  28.353471920336915  17.789113439488499   7.802478525400674   F   F   F
  23.863953716769455  17.789113439488499  10.469962565634328   F   F   F
   7.642662620336917   0.003379289488500   7.802478525400674   F   F   F
  44.574763016769460   0.003379289488500  10.469962565634328   F   F   F
  26.778493590359854  17.791141013181601  10.263337801776904   F   F   F
  25.438942842553555  17.791141013181601   8.009121561699189   F   F   F
   6.067684290359853   0.005406863181600  10.263337801776904   F   F   F
  46.149752142553552   0.005406863181600   8.009121561699189   F   F   F
  26.690685328449185  15.840259405736399  10.115769567525705   F   F   F
  25.526740308657185  15.840259405736399   8.156671523509297   F   F   F
   5.979876028449185  33.625993555736400  10.115769567525705   F   F   F
  46.237549608657190  33.625993555736400   8.156671523509297   F   F   F
  26.108712818553187  15.186384675445801   9.136220545517501   F   F   F
   5.397903518553187  32.972118825445797   9.136220545517501   F   F   F
  26.717039428886565  11.634573565690799  10.160865952138380   F   F   F
  25.500386208219808  11.634573565690799   8.111575138896622   F   F   F
   6.006230128886564  29.420307715690800  10.160865952138380   F   F   F
  46.211195508219809  29.420307715690800   8.111575138896622   F   F   F
  27.195065480811216  11.094634248365098  10.966022796373746   F   F   F
  25.022360156295157  11.094634248365098   7.306418294661256   F   F   F
   6.484256180811218  28.880368398365100  10.966022796373746   F   F   F
  45.733169456295151  28.880368398365100   7.306418294661256   F   F   F
  26.718162192818426  13.015600250970000  10.162766286011848   F   F   F
  25.499263444287951  13.015600250970000   8.109674805023154   F   F   F
   6.007352892818423  30.801334400969999  10.162766286011848   F   F   F
  46.210072744287949  30.801334400969999   8.109674805023154   F   F   F
  27.201273069857550  13.536900118906498  10.976529450001092   F   F   F
  25.016121941437252  13.536900118906498   7.295929913475002   F   F   F
   6.490463769857555  31.322634268906498  10.976529450001092   F   F   F
  45.726931241437256  31.322634268906498   7.295929913475002   F   F   F
  26.108712818553187  13.715931318860399   9.136220545517501   F   F   F
   5.397903518553187  31.501665468860402   9.136220545517501   F   F   F
  26.108712818553187  10.941427934397000   9.136220545517501   F   F   F
   5.397903518553187  28.727162084397001   9.136220545517501   F   F   F
  26.108712818553187   9.501743897891100   9.136220545517501   F   F   F
   5.397903518553187  27.287478047891103   9.136220545517501   F   F   F
   5.397903518553187  26.079755556169498   9.136220545517501   F   F   F
  26.108712818553187   8.294021406169501   9.136220545517501   F   F   F
  45.804624764045933  23.946925888369798   9.760699492244713   F   F   F
   6.412800873060439  23.946925888369798   8.511741598790289   F   F   F
  25.093815464045932   6.161191738369800   9.760699492244713   F   F   F
  27.123610173060438   6.161191738369800   8.511741598790289   F   F   F
  45.007135034733196  24.486865205695501  10.251387625303368   F   F   F
   7.210290602373185  24.486865205695501   8.021053465731635   F   F   F
  24.296325734733188   6.701131055695500  10.251387625303368   F   F   F
  27.921099902373182   6.701131055695500   8.021053465731635   F   F   F
  45.802747555343103  22.565899203090598   9.761868928474540   F   F   F
   6.414688877570301  22.565899203090598   8.510590435001554   F   F   F
  25.091938255343109   4.780165053090600   9.761868928474540   F   F   F
  27.125498177570300   4.780165053090600   8.510590435001554   F   F   F
  44.996716747823420  22.044670478090698  10.257801252126320   F   F   F
   7.220708889282960  22.044670478090698   8.014639838908682   F   F   F
  24.285907447823412   4.258936328090700  10.257801252126320   F   F   F
  27.931518189282958   4.258936328090700   8.014639838908682   F   F   F
   5.397903518553187  21.865568135200199   9.136220545517501   F   F   F
  26.108712818553187   4.079833985200200   9.136220545517501   F   F   F
   5.397903518553187  24.640071519663600   9.136220545517501   F   F   F
  26.108712818553187   6.854337369663600   9.136220545517501   F   F   F
  25.499498059684484  23.947957460950501   8.112105039688263   F   F   F
  26.717927577421886  23.947957460950501  10.160336051346739   F   F   F
  46.210307359684485   6.162223310950500   8.112105039688263   F   F   F
   6.007118277421885   6.162223310950500  10.160336051346739   F   F   F
  25.020809035712482  24.487861206807903   7.307368461597989   F   F   F
  27.196616601393888  24.487861206807903  10.965072629437012   F   F   F
  45.731618335712483   6.702127056807900   7.307368461597989   F   F   F
   6.485807301393887   6.702127056807900  10.965072629437012   F   F   F
  25.498375295752627  22.566895204203000   8.110204705814795   F   F   F
  26.719050341353743  22.566895204203000  10.162236385220206   F   F   F
  46.209184595752625   4.781161054203000   8.110204705814795   F   F   F
   6.008241041353743   4.781161054203000  10.162236385220206   F   F   F
  25.014570820854583  22.045595336266498   7.296880080411737   F   F   F
  27.202854816251786  22.045595336266498  10.975561010623267   F   F   F
  45.725380120854581   4.259861186266500   7.296880080411737   F   F   F
   6.492045516251786   4.259861186266500  10.975561010623267   F   F   F
  26.108712818553187  21.866492993376003   9.136220545517501   F   F   F
   5.397903518553185   4.080758843376000   9.136220545517501   F   F   F
  26.108712818553187  24.641138663712599   9.136220545517501   F   F   F
   5.397903518553185   6.855404513712600   9.136220545517501   F   F   F
  26.108712818553187  26.080893843155099   9.136220545517501   F   F   F
   5.397903518553186   8.295159693155099   9.136220545517501   F   F   F
   5.397903518553186   9.502953327813302   9.136220545517501   F   F   F
  26.108712818553187  27.288687477813301   9.136220545517501   F   F   F
  45.771135087456521  11.635889710017899   9.702684491780676   F   F   F
   6.446249128031250  11.635889710017899   8.569756599254324   F   F   F
  25.060325787456524  29.421623860017899   9.702684491780676   F   F   F
  27.157058428031256  29.421623860017899   8.569756599254324   F   F   F
  44.947341939672228  11.095985964160500  10.147801156758289   F   F   F
   7.270083697434140  11.095985964160500   8.124639934276713   F   F   F
  24.236532639672230  28.881720114160498  10.147801156758289   F   F   F
  27.980892997434140  28.881720114160498   8.124639934276713   F   F   F
  45.769203899718512  13.016951966765399   9.703762565805048   F   F   F
   6.448191111576299  13.016951966765399   8.568696797671045   F   F   F
  25.058394599718515  30.802686116765400   9.703762565805048   F   F   F
  27.159000411576304  30.802686116765400   8.568696797671045   F   F   F
  44.936545799516161  13.538216263233599  10.153575248143056   F   F   F
   7.280879837590215  13.538216263233599   8.118865842891946   F   F   F
  24.225736499516159  31.323950413233600  10.153575248143056   F   F   F
  27.991689137590217  31.323950413233600   8.118865842891946   F   F   F
   5.397903518553186  13.717354177592401   9.136220545517501   F   F   F
  26.108712818553190  31.503088327592398   9.136220545517501   F   F   F
   5.397903518553186  10.942708507255800   9.136220545517501   F   F   F
  26.108712818553187  28.728442657255798   9.136220545517501   F   F   F
