DB17-ddmof_18600
 1.0
      32.71784000000000       0.00000000000000       0.00000000000000
     -10.43919995631991      25.29870564523154       0.00000000000000
     -13.23729652226158     -13.22811904692128      24.05314225073930
 C N C H C N C H C N C H C N C H Zn O C O C O Zn C O Zn O C O C O Zn C H Zn O C O C O Zn C O Zn O C O C O Zn C H C H C H C H C H C H C H C H Cl C H Cl C H Cl C H Cl C H Cl C H Cl C H Cl C H Cl C H Cl C H Cl C H Cl C H Cl
 6 1 30 24 6 1 30 24 6 1 30 24 6 1 30 24 2 3 1 1 1 6 3 2 1 1 4 1 1 1 4 1 2 2 2 3 1 1 1 6 3 2 1 1 4 1 1 1 4 1 2 2 6 2 3 5 1 5 6 2 3 5 1 5 6 2 2 6 2 2 6 2 2 6 2 2 6 2 2 6 2 2 6 2 2 6 2 2 6 2 2 6 2 2 6 2 2 6 2 2
Selective dynamics
Cartesian
   8.198827956662146  -8.644052837280560  18.598851713961658   F   F   F
   7.720754699929227  -8.843451673420201  19.904456275331786   F   F   F
   6.629374536633073  -8.112151152159695  20.370606172151113   F   F   F
   6.011162727558823  -7.167752485198788  19.545342861528248   F   F   F
   6.401037190625638  -7.063952925420180  18.196442644106789   F   F   F
   7.494040185660518  -7.798846519390084  17.727165838794864   F   F   F
   5.117617377783668  -6.205908193901238  20.134644846671360   F   F   F
   6.208972316239132  -2.140813751224357  19.583827889129427   F   F   F
   5.287748573716939  -2.738035451304610  18.707812448357505   F   F   F
   4.911823447945736  -4.073387403280478  18.890135266618110   F   F   F
   5.471896253837212  -4.825574129713683  19.938611737327836   F   F   F
   6.406047212751004  -4.232949157783033  20.795384664299167   F   F   F
   6.767111940813292  -2.897150778398933  20.626050542853964   F   F   F
   1.089778001233579  -7.486446379688444  20.378303177671349   F   F   F
   1.685939734222133  -6.810076415122340  21.450351727786799   F   F   F
   2.989319977922323  -6.327646453536569  21.335377707828265   F   F   F
   3.713368911261700  -6.522955569719540  20.152684703359416   F   F   F
   3.086167239589958  -7.128293990419371  19.046240159825405   F   F   F
   1.779305366565804  -7.613047136811155  19.163138431163997   F   F   F
   7.140851559103373   1.995317417382054  19.913115406542051   F   F   F
   8.168132762400228   1.066975971821662  19.692548092102772   F   F   F
   7.859080706171795  -0.275492039744437  19.460916332228152   F   F   F
   6.521058301934655  -0.702628463714076  19.475348217578595   F   F   F
   5.492423490545955   0.246434942703242  19.586473734777012   F   F   F
   5.802315338555772   1.592983860689403  19.790444381063278   F   F   F
  12.242013395063372  -9.867967474587536  18.366017296974498   F   F   F
  11.881793129838460  -8.593121986858002  17.906842811407884   F   F   F
  10.535511291981191  -8.228643597909286  17.841658795908383   F   F   F
   9.540206784716734  -9.140171454051993  18.231319700370356   F   F   F
  -0.541843798476178  14.832226771115598  18.521400595914276   F   F   F
   0.804356703114376  14.472363308344336  18.599813839651684   F   F   F
  -2.750283966080758  -9.213206510810206  21.087870874068159   F   F   F
  -1.604847707401746  -9.786421508657268  21.658651939678201   F   F   F
  -0.344636184054938  -9.248764063612196  21.388054089357386   F   F   F
  -0.222011368859395  -8.124858669732763  20.557018024594342   F   F   F
  -1.365893722644437  -7.555069737431170  19.981426330534152   F   F   F
  -2.626670131496061  -8.089772365070218  20.255391620770073   F   F   F
   8.247736443059571  -9.501405932731117  20.585160201027708   T   T   T
   6.316248493759584  -8.215394635358134  21.402004911862814   T   T   T
   5.900184491981349  -6.370888059345940  17.533778575098921   T   T   T
   7.838803466538412  -7.655604648084327  16.710439515856113   T   T   T
   4.855858693161665  -2.165092905244860  17.896018897395052   T   T   T
   4.196859344209908  -4.524931865731282  18.215685157907380   T   T   T
   6.842268779331121  -4.808800219950866  21.601886523966460   T   T   T
   7.465306582580567  -2.442119091241347  21.318540508252749   T   T   T
   1.150436145427330  -6.689750289569277  22.384816304228021   T   T   T
   3.459258873288839  -5.846271287119142  22.184213097856855   T   T   T
   3.611684399374933  -7.236878533455251  18.107446017779051   T   T   T
   1.314617410217711  -8.112811001160441  18.321518983810630   T   T   T
   9.204926213467969   1.377763055303244  19.740173313759236   T   T   T
   8.659911864543052  -0.994064369623604  19.333194146876725   T   T   T
   4.455899159118356  -0.067722057409224  19.579017260679283   T   T   T
   5.002970291069445   2.314524253381322  19.910469560894470   T   T   T
  12.646310034761214  -7.858665490249845  17.684591777011057   T   T   T
  10.273003310119428  -7.209622906464617  17.584530705247978   T   T   T
  -1.304402002740273  14.105257320737278  18.774199120969545   T   T   T
   1.071528521018907  13.477042257683573  18.933911985514456   T   T   T
  -1.692869125762600 -10.641690756512023  22.317708037348456   T   T   T
   0.534780981932810  -9.690757963472857  21.841215289361312   T   T   T
  -1.279780550845164  -6.680790121912395  19.347144969382157   T   T   T
  -3.508388029008965  -7.622266508728057  19.835423757072164   T   T   T
  16.076326653294071   0.485508524170841  12.731328193316310   F   F   F
  15.797654427273413   0.243272120511509  14.087684884835500   F   F   F
  14.679917841318007   0.825386122613011  14.692621412441595   F   F   F
  13.843521432207043   1.677705620934072  13.961646419441626   F   F   F
  14.120622225999085   1.920805163683135  12.600960162317305   F   F   F
  15.216313340431380   1.308069822508658  11.985921314965900   F   F   F
  12.769970611618165   2.366821457339210  14.640666625179996   F   F   F
  13.279320410197512   6.536240897578180  14.038616474643991   F   F   F
  12.328518009437325   5.840117613493867  13.277575053830601   F   F   F
  12.093135693133620   4.482234840379168  13.518347007760500   F   F   F
  12.817164518481265   3.806635467811945  14.522325165306357   F   F   F
  13.701434323483369   4.529204911871043  15.335561904803853   F   F   F
  13.934582305244465   5.885592913296000  15.093827825183924   F   F   F
   8.993999064745200   0.403850485612410  14.484802263395204   F   F   F
   9.508319022572927   0.866255999160989  15.706701889732763   F   F   F
  10.734145918658111   1.540598728171275  15.743262665953885   F   F   F
  11.465593624450626   1.746687467982239  14.564418164245152   F   F   F
  10.944377014232987   1.287289695840991  13.338429503724972   F   F   F
   9.713261662835782   0.629161289092627  13.300906601813818   F   F   F
  14.490380168955593  10.475242917774462  12.877090235355789   F   F   F
  15.368473164633498   9.393068698694250  12.725555439176134   F   F   F
  14.971959651935776   8.109087688913547  13.107038275272858   F   F   F
  13.692352812290444   7.895838604050272  13.642461221774315   F   F   F
  12.811051478733008   8.978312111484883  13.792071766573914   F   F   F
  13.209542111905964  10.265317390618527  13.411069993322203   F   F   F
  19.793722288619147  -1.040037459642543  11.234501151052804   F   F   F
  19.423126155037309   0.288841122037147  10.974246151899806   F   F   F
  18.193760983762928   0.778104152301945  11.426926289058718   F   F   F
  17.305047782939511  -0.067440844409486  12.112921906049802   F   F   F
  17.635676753500064  -1.421909012051990  12.285382935987604   F   F   F
  18.880852086304792  -1.899873662294563  11.867820386514770   F   F   F
   5.134177745529279  -1.331910984725108  13.901994626659793   F   F   F
   6.281346262368169  -2.027710735979853  13.495496522622297   F   F   F
   7.550117895172342  -1.507842606459668  13.769702344280727   F   F   F
   7.679992761611556  -0.275181574143369  14.432847476133610   F   F   F
   6.532766684476119   0.372279336049926  14.918961481021050   F   F   F
   5.264949912842093  -0.156359030635809  14.657022761910499   F   F   F
  16.461874720155613  -0.374724926492097  14.679632715626193   T   T   T
  14.482145215864028   0.643420646098841  15.741578945996334   T   T   T
  13.499665057497030   2.593668958502318  12.026090062524634   T   T   T
  15.409958549112350   1.491202679088082  10.935761124298622   T   T   T
  11.810579096586228   6.337284748483906  12.466022034290656   T   T   T
  11.399586712379445   3.947077263104148  12.885989897988566   T   T   T
  14.250270205528350   4.023084062231522  16.119694342177958   T   T   T
  14.658758195396533   6.419927087701470  15.697321164254975   T   T   T
   8.960810659819135   0.700668742410599  16.626975112246047   T   T   T
  11.126719890780107   1.887662415466924  16.690956470633015   T   T   T
  11.473830326677787   1.462197795085540  12.414548309874073   T   T   T
   9.312233966051004   0.303717254840288  12.348402168684540   T   T   T
  16.358304962736224   9.548071040992008  12.313525112420969   T   T   T
  15.656552676438686   7.278481771620584  12.982924061259045   T   T   T
  11.821901004745024   8.823131186698713  14.206266876131645   T   T   T
  12.526829276230909  11.097596662089646  13.533981550223482   T   T   T
  20.114165216767365   0.958961622578727  10.476586638732009   T   T   T
  17.952449126446353   1.824596082102730  11.284531686934342   T   T   T
  16.945807514192623  -2.093392003092842  12.781839792042863   T   T   T
  19.153167306990866  -2.927257726839921  12.072993689913575   T   T   T
   6.189148469560277  -2.945262481913759  12.926399176969808   T   T   T
   8.430338850799856  -2.034374264088929  13.420210187377485   T   T   T
   6.619928981514459   1.313813656053338  15.448130610537314   T   T   T
   4.383072251316221   0.377132276169258  14.990639844928252   T   T   T
   1.938321390903023  20.348353804118261   0.211427120383998   F   F   F
   2.625002575913726  20.418652530814725   1.432364621031525   F   F   F
   3.888208762933321  19.831644642236018   1.561770526340503   F   F   F
   4.474288718900327  19.167380047867287   0.475530622297116   F   F   F
  -9.437678036952278   5.903738924310611  23.292341361348413   F   F   F
 -10.696560892765321   6.494541618736106  23.162935456039438   F   F   F
   5.709637345113788  18.445582866949596   0.671082668795627   F   F   F
  -7.901655480659040   1.186436248821309  23.417658232474768   F   F   F
  -7.261888937322513   2.125452735649803  22.595281298921989   F   F   F
  -7.093621251782170   3.443015256849570  23.031364767927894   F   F   F
   5.670767070386610  17.063063831402889   0.248228428027630   F   F   F
   5.070909971574972  16.109337699244463   1.082631932705776   F   F   F
   4.900569366747744  14.793627114711260   0.643181023784769   F   F   F
  -3.900661432853205   7.282166917692598  23.879959626533978   F   F   F
   9.163295252686634  19.834945856052848   1.046071156484652   F   F   F
   7.968137393650102  19.161383107773812   1.313542098312873   F   F   F
   6.923076448721161  19.174973114976552   0.380761241829203   F   F   F
  -6.161710760170363   6.670183972609717  23.233651694256611   F   F   F
  -4.954966839139898   7.317254201990414  22.952710992767976   F   F   F
  -8.904991988537638  -2.764988049577983  22.119991208047381   F   F   F
  -9.381647973202579  -1.651767831651034  21.412347763030631   F   F   F
  -9.021767161499199  -0.360889599619135  21.811389392970398   F   F   F
  -8.176026229891221  -0.174727580811821  22.916871810814374   F   F   F
  -7.657582862933552  -1.291691293040882  23.590840856680089   F   F   F
  -8.021084099790434  -2.581724584010903  23.193482946697877   F   F   F
 -15.205774499214439   8.727328612826707  23.612969747550771   F   F   F
 -14.997471195302765   7.341951738834945  23.555963800416517   F   F   F
 -13.732991210892505   6.811326677451472  23.823434742244739   F   F   F
   0.571355242427641  20.891293973494079   0.094528849045405   F   F   F
   0.345549929006840  22.270380781796781   0.223694222931875   F   F   F
 -14.159877011085992   9.572218767603269  24.016100411673161   F   F   F
  -0.130483058887201   9.023663703588189  22.805024699348436   F   F   F
  -1.306531279512596   9.783438543449252  22.713382227373121   F   F   F
  -2.532900587869262   9.226973903457369  23.092700280667277   F   F   F
  -2.595468869556024   7.899070585819768  23.548988389163803   F   F   F
  -1.413189606090004   7.148095698850984  23.658670717827174   F   F   F
  -0.185187714149837   7.714876543991618  23.307975903811396   F   F   F
   2.170110618362782  20.904310279163990   2.287213296622800   T   T   T
   4.399763572787048  19.863974233277137   2.515477616582316   T   T   T
  -8.997902069104136   5.401929682942979  22.441100657094751   T   T   T
 -11.212642503959175   6.450528321800236  22.211152617177685   T   T   T
  -6.916215217174213   1.839911261995617  21.608861935219171   T   T   T
  -6.639916659765328   4.162833921664205  22.366054853272445   T   T   T
   4.706785990339038  16.399267602833103   2.060151633775821   T   T   T
   4.404410574573929  14.075881987810675   1.285399921879508   T   T   T
   9.959709798063798  19.820197049698486   1.779932526554708   T   T   T
   7.852954640874430  18.623856906658329   2.246322954796543   T   T   T
  -6.953641572736169   6.691510442431838  22.499790324186556   T   T   T
  -4.830529290560262   7.825442197343039  22.003814530976310   T   T   T
 -10.061187463659211  -1.785920768211021  20.579387446887530   T   T   T
  -9.426438090189752   0.494629122250773  21.283903983411683   T   T   T
   6.242686895743112  12.069497620185414   0.384128681744307   T   T   T
  -7.644217370395012  -3.437597188318758  23.740932464324704   T   T   T
 -15.802203410504546   6.681950318232511  23.254577928014754   T   T   T
 -13.572788848969182   5.742894671439878  23.742135121437240   T   T   T
   1.160873381725905  22.935184061476296   0.483227627817353   T   T   T
  -1.077759704098981  23.871321229292999   0.017077730998025   T   T   T
  -1.271560106627568  10.799332630579659  22.339115333951618   T   T   T
  -3.434597480120688   9.823666306959216  23.023427230985149   T   T   T
  -1.447815323780228   6.120942910292928  24.001427994900208   T   T   T
   0.721227238090382   7.128725229424884  23.401783158589279   T   T   T
  -3.124449220692458  15.853721591830571  13.735065819439663   F   F   F
  -2.923191389932288  15.147963547416193  14.930506989301405   F   F   F
  -1.704419782431998  14.507684347590731  15.171038411808798   F   F   F
  -0.671414257257711  14.572546417443007  14.225990452777250   F   F   F
  -0.868306511237784  15.295702692130167  13.032954597140581   F   F   F
  -2.083160308919410  15.943817868002284  12.797955397350860   F   F   F
   0.541720918275019  13.815211955212643  14.447519892906561   F   F   F
  -0.199974015471986   9.829712091299204  13.167652193744722   F   F   F
  -0.107071378933402  10.858570599479666  12.217793606263028   F   F   F
   0.189461008175633  12.164213013299443  12.623570116032997   F   F   F
   0.395267342425153  12.451919993581919  13.987864344494930   F   F   F
   0.344685422095377  11.413834915585436  14.926899017963795   F   F   F
   0.047554640117658  10.108963038259503  14.520641445348806   F   F   F
   4.237225424539140  15.843364038004998  13.713417991413998   F   F   F
   4.078319313642750  14.516254120442472  13.295614910518655   F   F   F
   2.869545497453244  13.847483325998272  13.511131065085278   F   F   F
   1.780399672539345  14.517302809417327  14.119435032606477   F   F   F
   1.965066424840524  15.843943091297042  14.562012850020079   F   F   F
   3.181423531400227  16.501132687684624  14.354674763818707   F   F   F
  -1.306973249953195   5.836253587262864  12.076601661251187   F   F   F
  -2.161282859734746   6.611947030638070  12.874203858285703   F   F   F
  -1.811127479802276   7.923447940602042  13.209985724106023   F   F   F
  -0.600739602665664   8.469368266745539  12.753697615609498   F   F   F
   0.240890198031594   7.703108136570471  11.932042276324244   F   F   F
  -0.110121875998727   6.389945447752829  11.596982004771446   F   F   F
  -6.975963936066257  17.468985898839648  12.791220517520651   F   F   F
  -6.393141971488223  16.503505919452866  11.958741264222565   F   F   F
  -5.140500424028764  15.971781202243214  12.271913176327191   F   F   F
  -4.455281922082950  16.408089485633834  13.416602216039873   F   F   F
  -5.046447874380332  17.365133242182921  14.257981131970734   F   F   F
   4.131621137371220  -7.412876608484736  13.951063036851302   F   F   F
   8.046067547875932  17.610554299655757  12.905954006056680   F   F   F
   7.782108775590918  17.054352839030308  14.168022379952971   F   F   F
   6.519268429273072  16.521707163734096  14.451127864244171   F   F   F
   5.512018022855808  16.542663626551889  13.475051351709171   F   F   F
   5.756871682758236  17.152075008760363  12.235833462951083   F   F   F
   7.019190045241312  17.684852965247046  11.952487447237372   F   F   F
  -3.723237551393366  15.064840453955037  15.656671353851225   T   T   T
  -1.579980726530518  13.914006652892926  16.066536897803822   T   T   T
  -0.084984078397939  15.346521187097951  12.287788250212678   T   T   T
  -2.225887303688160  16.493123660147287  11.875036329189992   T   T   T
  -0.284523233847761  10.650539165485862  11.169557666975809   T   T   T
   0.260904814348211  12.949216474037460  11.882973866132737   T   T   T
   0.502318357298000  11.626626802353888  15.977059208631074   T   T   T
  -0.009228689709280   9.318560869443463  15.259553975291519   T   T   T
   4.899664901386880  13.995342945015526  12.817678973996465   T   T   T
   2.797951525195490  12.807285320681469  13.228987706484107   T   T   T
   1.164731115479311  16.363210628272569  15.071458402890737   T   T   T
  13.742521535025833  -7.776772373474506  14.696469915201712   T   T   T
  -3.085533253102912   6.190744485955652  13.251838191622308   T   T   T
  -2.472144916433665   8.510486062477638  13.836329548315273   T   T   T
   1.175706511481115   8.116148926038377  11.572928862520707   T   T   T
   0.557565348181508   5.796258540380314  10.984107940222609   T   T   T
  -6.907995974141898  16.172095928597081  11.064926498185091   T   T   T
  -4.701235466454407  15.221678899661853  11.625124181204811   T   T   T
   5.912115453946575  -7.588511016386653  15.141693578262897   T   T   T
   3.678023855069579  -6.681617724029076  14.608194883141499   T   T   T
   8.564863417287132  17.001234309905477  14.914150852570902   T   T   T
   6.335339347675301  16.060733475259926  15.414456211386280   T   T   T
   4.981720034347650  17.179631939941267  11.479602670587838   T   T   T
   7.212351398564694  18.114504230101318  10.976651466124878   T   T   T
 -10.780340201358589 -10.787580669781979  22.771590831619910   F   F   F
  21.289044108153011 -10.661709211486363  19.827245688706910   F   F   F
  12.983368758508949  12.917867726119214  18.122118434552004   F   F   F
  11.595303945769366  14.730391275076487  17.953986970219336   F   F   F
  12.300495265888431  10.288793292706178  20.152684703359416   F   F   F
  -8.132270200921340 -11.025648342049104  21.867673745837124   F   F   F
  10.275210668002991  12.796942733608768  19.488817977239009   F   F   F
 -10.608856003973900  -8.194037874613521  21.387091963667356   F   F   F
  -8.840411895612295 -10.934361422032531  22.968105003808450   F   F   F
  -8.732482112675356 -11.313426790114367  20.737657122897396   F   F   F
 -12.155970367614270 -11.189522449715270  21.660095128213246   F   F   F
 -20.896504481016319  11.522986931287459  21.998041776836136   F   F   F
 -10.727462955470907  -8.819019908034019  20.224363067266619   F   F   F
 -10.826412579353878  -8.812288773057649  22.531059409112515   F   F   F
   7.549269105681656  10.291481992900229  20.093513973422596   F   F   F
   8.639250596305464   9.929608797912897  22.742005466651502   F   F   F
   9.675390780264669  12.301437549288927  21.245900018655515   F   F   F
   7.863700119321392   7.533896585696253  21.172297403368251   F   F   F
   5.183401141408737  10.764967337260023  21.533094537129340   F   F   F
   7.542634142072615  13.151116491672934  20.451184198691088   F   F   F
   7.321803521218436  12.419972838650843  23.290417109968356   F   F   F
   8.270661129585070   8.017930102699351  22.336469488304033   F   F   F
   7.317026517125205   8.310475687049081  20.256113215037594   F   F   F
   5.672604539308496  10.761485296737064  20.316246070664441   F   F   F
   6.007043313942411  10.666003153454540  22.554872019940749   F   F   F
  20.714387434851730  23.816617513534940   1.480951968378019   F   F   F
   9.185845079047230  10.501428653808988  20.846617857293243   F   F   F
  17.018303719569289 -11.459595893126206  21.029662269821369   F   F   F
  21.312682605718262  22.942541878552120   0.676855422935804   F   F   F
  30.780918076561086  -0.289210507883224   1.058578790455037   F   F   F
  16.832333143741778 -11.551450409542401  22.323721322911144   F   F   F
   9.045381633449342  11.807959601585193  22.981815294891369   F   F   F
  11.714218544367965  11.685673851584735  19.016654794856997   F   F   F
  12.691067199392915  14.094379051246921  17.607140658963676   F   F   F
 -20.179742764413071  10.589040668146584  21.405853414622932   F   F   F
 -23.038522570735132  11.983306582464651  23.721930481946622   T   T   T
   9.549860393881227  12.750251966049706  18.816532651330846   T   T   T
  -3.029675243522910  -2.311147746915853  12.800120180153424   F   F   F
  -3.706953383440193  -2.061851545711515   9.773032227897884   F   F   F
  -1.939754712403977  -3.455272691844515   7.569042803462643   F   F   F
  -3.373873128131053  -1.687220904620947   7.787685866521863   F   F   F
 -12.294921172886241  19.135180194007781   9.594076849552383   F   F   F
  -0.242747234307902  -2.506490956250918  12.270710519214653   F   F   F
  -4.311395000690592  -3.880414418579396   9.335265038934429   F   F   F
  -2.790239483953727   0.301671590754200  11.466132910927424   F   F   F
  -1.124174968108540  -2.439280594853962  13.241495340454494   F   F   F
  -0.649475154881901  -2.650825570430902  11.030289973344027   F   F   F
  -4.313975211231088  -2.765537089472725  11.607805918784278   F   F   F
  -2.327412444204985  -5.095134392630326  11.538051806257135   F   F   F
  -2.931222637288435  -0.263646788394770  10.273578118135770   F   F   F
  -3.125190960491868  -0.332362002781378  12.572096391616418   F   F   F
  15.757518117423638  18.374631131734766   9.928174995415153   F   F   F
 -15.267429068749085  18.072185362410533  12.404205458706258   F   F   F
  -4.620737409428420  -4.587031513846449  11.092106548928427   F   F   F
  16.339598708189371  15.683837244219452  11.243400813685579   F   F   F
  13.524267611334622  18.729597597306473  11.514720258273917   F   F   F
  25.744775103247868  -3.930726421864120  10.805874156144629   F   F   F
  -6.624666719802794  -5.100761038651737  13.490926425594660   F   F   F
 -15.324863163279243  16.209302013785731  11.831740673138661   F   F   F
  15.622464437114289  16.382149014824783  10.378449818348992   F   F   F
  13.885675890966684  18.759890221486621  10.255778792870222   F   F   F
  24.887947100142288  -6.768479816995211  12.430182852337055   F   F   F
  -6.127289481650299  -7.478443333550839  15.062077677412949   F   F   F
 -15.319119949774230  18.882819989350882  10.540567997118975   F   F   F
  24.909814089978482  -3.380662822122132  11.675635779931364   F   F   F
  -5.058702753133757  -7.768823408091428  14.350345198213573   F   F   F
  -6.606001296483200  -6.249787765825680  15.092625168071388   F   F   F
  -7.770890080906195  -3.722435436796390  12.942033719432787   F   F   F
  -4.889002573263390  -5.335315398777856  12.840529459134666   F   F   F
 -13.272074868557825  20.462270763150940   8.640610290733079   F   F   F
  -2.572830011680262  -2.429425899117523   7.049254399424166   F   F   F
  -1.590153896636442  -5.940791340357016  10.856626286293690   F   F   F
  -4.193180742426167  -5.076722315667645  13.495977585467312   T   T   T
  -5.111285261762474  -3.911043128428306   8.752457402199015   T   T   T
 -19.003587894503863  14.813395909009948  16.848985615220371   F   F   F
  13.473823620641980  15.223294891606882  15.521733225824578   F   F   F
  14.284162787076216  16.212448713531650  14.955041194397159   F   F   F
  -6.902602711683738  -8.566072007304712  15.662925170836417   F   F   F
  -6.560213652526400  -9.106398112617217  16.922347699085126   F   F   F
 -17.843094778374539  15.238194865505966  17.509965964270688   F   F   F
  14.082603775930735  16.553415662359377  13.948176659781213   T   T   T
 -17.617314922454732  14.856540019348477  18.499271705043594   T   T   T
  12.388580619834446  14.581921104887854  14.682759624118791   F   F   F
  -5.258506774420604  -8.747666843993196  17.605938001851140   F   F   F
  11.129747862340899  15.443208138460886  14.656782230487991   F   F   F
  12.136573752976453  13.564383436931628  15.051734826245132   T   T   T
  12.754376463027153  14.453200278050733  13.639815376126734   T   T   T
  10.661593341728622  15.485839019161784  15.660760388033848   T   T   T
  10.396205875684938  15.006555243992914  13.946974002668675   T   T   T
  11.372446656846126  16.475941500124254  14.329178433032922   T   T   T
 -14.568854692162978  15.641142663529237  17.128723659596471   F   F   F
  -5.367021734430153  -8.861178733837011  18.706609791244968   T   T   T
  -4.984872936256880  -7.686030359153126  17.428185280618173   T   T   T
 -14.823281476230449  14.577135022502963  17.320908266179877   T   T   T
  -3.194852964825784  -9.411883640918838  17.674248925843237   T   T   T
 -14.388085289849148  15.777208409909646  16.042243224130576   T   T   T
  -2.371130393686173  -2.109052775818919   5.631321663743084   F   F   F
  -1.367766342291049  -1.199839811696621   5.227469405353172   F   F   F
  -1.058703985288598  -1.075201040610794   3.864137302581268   F   F   F
  20.519780097637554  23.484606985639530   2.898884704059100   F   F   F
  19.512239185750254  22.577021074397443   3.303458556716535   F   F   F
  19.207707811117761  22.449444013851199   4.667993316600976   F   F   F
  -0.287715669570217  -0.379649841361536   3.550243796209121   T   T   T
  18.436698032645875  21.754737755663822   4.983570542930676   T   T   T
  -0.596873692957276  -0.377734329499408   6.241068819799326   F   F   F
  18.719455997112313  21.775683681478288   2.288897016580352   F   F   F
   0.663876522859860  -1.106828859838867   6.697837991140865   F   F   F
  -1.224176308625834  -0.131447025395340   7.124059671823965   T   T   T
  -0.302083728832161   0.595813479237663   5.791996653978023   T   T   T
   0.403549146534675  -2.055266565912572   7.212575235306686   T   T   T
   1.226409481235727  -0.464618194341145   7.407405687537675   T   T   T
   1.319320458764017  -1.329791770912498   5.828557430199147   T   T   T
  17.520788150461478  22.567160282010061   1.773438178147009   F   F   F
  18.350269321567222  20.833820413959067   2.751198410639561   T   T   T
  19.356374761670732  21.465202106735525   1.434769935256599   T   T   T
  16.834779411281588  22.819112584280941   2.610246997050229   T   T   T
  16.964551770633882  21.959188906651534   1.028752894064120   T   T   T
  17.855722395395279  23.502887418474241   1.282273013386912   T   T   T
  -1.611465547824816   4.410921574425266  11.840159272926421   F   F   F
  -2.530323012807193   4.023743803403044  10.845802372280856   F   F   F
  -2.881165244685947   2.674039889704507  10.704610427269017   F   F   F
  -2.327106973452342   1.702860933189751  11.554648474410143   F   F   F
  -1.368857709116834   2.089382308506353  12.518457884397268   F   F   F
  -1.020680392366292   3.437275634215142  12.656041858071498   F   F   F
  -3.607059553742619   2.385247247075152   9.953190263355921   T   T   T
  -0.298838007351801   3.730564167238208  13.409867336209665   T   T   T
  -3.252035451362546   5.219984030696978   9.773753822165407   F   F   F
  -0.569716232730157   0.897490890177899  13.541197492898702   F   F   F
   9.434487668174389  17.936503100003879  12.517976821552253   F   F   F
  20.512858943197635  -6.205824280048201  13.007939329199811   F   F   F
  21.846693284909623  -5.945020539403278  12.662055143634182   F   F   F
  12.116237481878425  18.457854254072792  11.847375215601641   F   F   F
  11.482671803399729  17.286419083828807  11.383871164429895   F   F   F
  10.140292427139444  17.050287426475830  11.692713510929387   F   F   F
  22.332201731590374  -5.049096393544661  13.031270877183029   T   T   T
   9.658893292552815  16.147916228257682  11.333840628548359   T   T   T
  19.661517470687368  -5.085500039920621  14.065796525387327   F   F   F
  12.383405693839556  16.056253541857195  10.501361375250269   F   F   F
 -10.746643213750822  18.916093862004342  11.412975466553290   F   F   F
 -10.696089108811432  17.900231908755483  12.385203476328172   F   F   F
  -9.458843962357326  17.470047315651072  12.878533423890836   F   F   F
  -8.271870044412129  18.064327848171544  12.425853286731920   F   F   F
   2.108778827814691  -6.160735684891967  11.517847166766513   F   F   F
   0.875836449536924  -5.755477716966991  10.998539825573053   F   F   F
  -9.418134618102284  16.655080639253555  13.592190154470270   T   T   T
   0.837496615372842  -4.948518976401178  10.275983432360842   T   T   T
 -12.172352846169421  17.140281019812029  12.973062272936241   F   F   F
   3.572522709583359  -5.309162305712767  11.033416881836624   F   F   F
  -9.415360187292135  -4.112762051375012  21.809224610167831   F   F   F
 -10.629326551080950  -4.559958051674245  22.362927944779848   F   F   F
 -11.045151684643157  -5.878931380507102  22.158957298493579   F   F   F
 -10.257164785815934  -6.764952058852335  21.409701917383050   F   F   F
  -9.064836287832343  -6.302811566568958  20.813183989564713   F   F   F
  -8.650521096169228  -4.980405549487267  21.016433041583465   F   F   F
 -11.967620816230280  -6.225273022379816  22.611156372807478   T   T   T
  -7.718620306420712  -4.636418535855146  20.583235949647648   T   T   T
 -11.618687324487373  -3.488575951435614  23.351993154130248   F   F   F